
--- Job bchfcnet.gms Start 02/08/22 17:24:39 34.3.0 rac355f3 WEX-WEI x86 64bit/MS Windows
--- Applying:
    C:\GAMS\34\gmsprmNT.txt
--- GAMS Parameters defined
    Input C:\Users\dekhi\Desktop\gamsworld\FCNetLib\test\bchfcnet.gms
    PageSize 0
    ScrDir C:\Users\dekhi\Desktop\gamsworld\FCNetLib\test\225a\
    SysDir C:\GAMS\34\
    LogOption 3
    ErrMsg 1
    ErrorLog 99
    IDE 1
    ResLim 3600
    LstTitleLeftAligned 1
Licensee: Eval License                                   S211214|0002AW-GEN
          Ostfalia Hochschule fuer angewandte Wissenschaften        DCE1645
          C:\Users\dekhi\Documents\GAMS\gamslice.txt
          License Admin: Mohamed Ali Dekhil, dekhil.medali@gmail.com       
          Evaluation license: Not for commercial or production use
GAMS 34.3.0   Copyright (C) 1987-2021 GAMS Development. All rights reserved
--- Starting compilation
--- bchfcnet.gms(34) 2 Mb
--- . decl.gms(15) 2 Mb
--- bchfcnet.gms(38) 2 Mb
--- . k20x380.inc(801) 3 Mb
--- bchfcnet.gms(67) 3 Mb
--- . equs.gms(20) 3 Mb
--- bchfcnet.gms(97) 3 Mb
--- call rm -f bchout_i.gdx startcut.txt startheur.txt cuthist.gdx agap.txt rgap.txt cntfail.txt
--- bchfcnet.gms(118) 3 Mb
--- Starting execution: elapsed 0:00:00.093
--- bchfcnet.gms(859) 4 Mb
--- GDX File (execute_unload) C:\Users\dekhi\Desktop\gamsworld\FCNetLib\test\net.gdx
--- bchfcnet.gms(950) 4 Mb
--- GDXin=C:\Users\dekhi\Desktop\gamsworld\FCNetLib\test\points\k20x380.gdx
--- GDX File (execute_load) C:\Users\dekhi\Desktop\gamsworld\FCNetLib\test\points\k20x380.gdx
--- Generating MIP model master
--- bchfcnet.gms(954) 4 Mb
---   401 rows  761 columns  2,281 non-zeroes
---   380 discrete-columns
--- Executing CPLEX (Solvelink=2): elapsed 0:00:00.128

IBM ILOG CPLEX   34.3.0 rac355f3 Released Feb 25, 2021 WEI x86 64bit/MS Window

--- GAMS/Cplex Link licensed for continuous and discrete problems.

Reading parameter(s) from "C:\Users\dekhi\Desktop\gamsworld\FCNetLib\test\cplex.op2"
>>  mipstart 1
Finished reading from "C:\Users\dekhi\Desktop\gamsworld\FCNetLib\test\cplex.op2"

--- Space for names approximately 0.02 Mb
--- Use option 'names no' to turn use of names off
--- GMO memory 0.63 Mb (peak 0.64 Mb)
--- Dictionary memory 0.00 Mb
--- Cplex 20.1.0.0 link memory 0.02 Mb (peak 0.08 Mb)
--- Starting Cplex

Version identifier: 20.1.0.0 | 2020-11-10 | 9bedb6d68
CPXPARAM_Threads                                 1
CPXPARAM_MIP_Display                             4
CPXPARAM_TimeLimit                               3600
CPXPARAM_MIP_Tolerances_AbsMIPGap                0
CPXPARAM_MIP_Tolerances_MIPGap                   0
Generic callback                                 0x50
Processing 1 MIP starts.
MIP start 'm1' defined solution with objective 1941.0000.
1 of 1 MIP starts provided solutions.
MIP start 'm1' defined initial solution with objective 1941.0000.
Tried aggregator 1 time.
MIP Presolve eliminated 19 rows and 1 columns.
MIP Presolve added 38 rows and 0 columns.
Reduced MIP has 419 rows, 760 columns, and 1558 nonzeros.
Reduced MIP has 380 binaries, 0 generals, 0 SOSs, and 0 indicators.
Presolve time = 0.00 sec. (2.12 ticks)
Probing time = 0.00 sec. (0.08 ticks)
Tried aggregator 1 time.
Detecting symmetries...
Reduced MIP has 419 rows, 760 columns, and 1558 nonzeros.
Reduced MIP has 380 binaries, 0 generals, 0 SOSs, and 0 indicators.
Presolve time = 0.01 sec. (2.22 ticks)
Probing time = 0.00 sec. (0.08 ticks)
MIP emphasis: balance optimality and feasibility.
MIP search method: dynamic search.
Parallel mode: none, using 1 thread.
Tried aggregator 1 time.
LP Presolve eliminated 361 rows and 361 columns.
Aggregator did 19 substitutions.
Reduced LP has 39 rows, 380 columns, and 798 nonzeros.
Presolve time = 0.00 sec. (0.38 ticks)

Iteration log . . .
Iteration:     1   Dual objective     =           144.624000
Initializing dual steep norms . . .
Root relaxation solution time = 0.00 sec. (0.70 ticks)

        Nodes                                         Cuts/
   Node  Left     Objective  IInf  Best Integer    Best Bound    ItCnt     Gap

*     0+    0                         1941.0000        0.0000           100.00%
Found incumbent of value 1941.000000 after 0.01 sec. (6.23 ticks)
      0     0      952.5660    16     1941.0000      952.5660       21   50.92%
      0     0     1539.0936    33     1941.0000      Cuts: 78       77   20.71%
      0     0     1631.0684    43     1941.0000      Cuts: 73      136   15.97%
      0     0     1691.8772    38     1941.0000      Cuts: 74      207   12.83%
      0     0     1711.9460    45     1941.0000      Cuts: 65      258   11.80%
      0     0     1731.9000    47     1941.0000      Cuts: 61      321   10.77%
Detecting symmetries...
      0     0     1740.4555    32     1941.0000      Cuts: 73      377   10.33%
      0     0     1747.1290    37     1941.0000      Cuts: 42      413    9.99%
      0     0     1754.4270    53     1941.0000      Cuts: 69      472    9.61%
      0     0     1765.1193    37     1941.0000      Cuts: 53      546    9.06%
      0     0     1769.4684    56     1941.0000      Cuts: 34      600    8.84%
      0     0     1777.0344    65     1941.0000      Cuts: 52      683    8.45%
      0     0     1781.0671    49     1941.0000      Cuts: 55      740    8.24%
      0     0     1783.5100    51     1941.0000      Cuts: 42      792    8.11%
      0     0     1785.3149    50     1941.0000      Cuts: 28      836    8.02%
      0     0     1786.9929    48     1941.0000      Cuts: 27      894    7.93%
      0     0     1788.7014    56     1941.0000      Cuts: 21      945    7.85%
      0     0     1790.4256    37     1941.0000      Cuts: 24      996    7.76%
      0     0     1791.5352    45     1941.0000      Cuts: 24     1033    7.70%
      0     0     1792.6676    46     1941.0000      Cuts: 20     1065    7.64%
      0     0     1793.5851    47     1941.0000      Cuts: 17     1092    7.59%
      0     0     1793.8153    39     1941.0000      Cuts: 15     1126    7.58%
      0     0     1794.2233    59     1941.0000      Cuts: 12     1157    7.56%
      0     0     1794.6981    51     1941.0000      Cuts: 26     1189    7.54%
      0     0     1794.9221    46     1941.0000      Cuts: 13     1210    7.53%
Detecting symmetries...
      0     2     1794.9221    46     1941.0000     1794.9232     1210    7.53%
Elapsed time = 0.45 sec. (445.84 ticks, tree = 0.01 MB, solutions = 1)
    130    91     1810.0287    33     1941.0000     1799.5725     4638    7.29%
                                                      Cuts: 4                  
    297   178     1900.8993     9     1941.0000     1818.9181     8288    6.29%
                                                     Cuts: 14                  
    408   243     1861.2057    44     1941.0000     1823.8710    12172    6.03%
                                                     Cuts: 14                  
    492   284     1884.3546    19     1941.0000     1827.2917    16421    5.86%
                                                     Cuts: 15                  
    622   342        cutoff           1941.0000     1830.6677    20258    5.68%
                                                      Cuts: 7                  
    792   451     1931.4819    11     1941.0000     1835.4647    24079    5.44%
                                                      Cuts: 7                  
    902   487     1860.6358    43     1941.0000     1838.4796    28640    5.28%
                                                      Cuts: 7                  
   1012   534     1914.9960     7     1941.0000     1839.9449    32743    5.21%
                                                      Cuts: 7                  
   1090   570     1913.7954    33     1941.0000     1843.4703    36605    5.02%
                                                     Cuts: 15                  
   1390   677     1882.9215    57     1941.0000     1860.0405    51937    4.17%
                                                     Cuts: 25                  
Elapsed time = 2.53 sec. (3576.20 ticks, tree = 1.03 MB, solutions = 1)

Performing restart 1

Repeating presolve.
Tried aggregator 1 time.
MIP Presolve modified 384 coefficients.
Reduced MIP has 419 rows, 760 columns, and 1558 nonzeros.
Reduced MIP has 380 binaries, 0 generals, 0 SOSs, and 0 indicators.
Presolve time = 0.00 sec. (1.98 ticks)
Tried aggregator 1 time.
Reduced MIP has 419 rows, 760 columns, and 1558 nonzeros.
Reduced MIP has 380 binaries, 0 generals, 0 SOSs, and 0 indicators.
Presolve time = 0.00 sec. (2.20 ticks)
Represolve time = 0.00 sec. (8.95 ticks)
Tried aggregator 1 time.
LP Presolve eliminated 25 rows and 0 columns.
Aggregator did 1 substitutions.
Reduced LP has 653 rows, 759 columns, and 10338 nonzeros.
Presolve time = 0.00 sec. (1.24 ticks)

Iteration log . . .
Iteration:     1   Dual objective     =           131.000000
Iteration:    62   Dual objective     =          1359.894713
Iteration:   124   Dual objective     =          1707.183136
Iteration:   186   Dual objective     =          1767.369768
Iteration:   248   Dual objective     =          1789.618754
Iteration:   310   Dual objective     =          1795.614433
Initializing dual steep norms . . .
   1539     0     1807.4088    49     1941.0000      Cuts: 47    58210    4.00%
   1539     0     1810.2166    46     1941.0000      Cuts: 38    58288    4.00%
   1539     0     1812.8652    49     1941.0000      Cuts: 35    58355    4.00%
   1539     0     1813.8842    44     1941.0000      Cuts: 39    58411    4.00%
   1539     0     1815.2347    53     1941.0000      Cuts: 18    58468    4.00%
   1539     0     1816.2681    58     1941.0000      Cuts: 29    58508    4.00%
   1539     0     1816.7776    54     1941.0000      Cuts: 22    58539    4.00%
   1539     2     1816.7776    54     1941.0000     1863.3179    58539    4.00%
   1690    81     1905.5019    38     1941.0000     1863.3179    64022    4.00%
                                                     Cuts: 31                  
   2045   271     1886.0156    39     1941.0000     1876.6842    78510    3.31%
                                                     Cuts: 49                  
   2289   376     1925.1146    31     1941.0000     1889.7609    91597    2.64%
                                                     Cuts: 26                  
   2643   488        cutoff           1941.0000     1900.1954   104491    2.10%
                                                     Cuts: 20                  
   2981   524     1934.3026     5     1941.0000     1910.4600   118709    1.57%
                                                     Cuts: 18                  
   3419   497        cutoff           1941.0000     1920.1279   133713    1.08%
                                                      Cuts: 9                  
   3919   363     1937.9435    25     1941.0000     1928.7225   146407    0.63%

Cover cuts applied:  19
Implied bound cuts applied:  2
Flow cuts applied:  131
Mixed integer rounding cuts applied:  49
Flow path cuts applied:  17
Zero-half cuts applied:  1
Multi commodity flow cuts applied:  6
Lift and project cuts applied:  19
Gomory fractional cuts applied:  19

Root node processing (before b&c):
  Real time             =    0.45 sec. (445.85 ticks)
Sequential b&c:
  Real time             =    7.83 sec. (11635.63 ticks)
                          ------------
Total (root+branch&cut) =    8.28 sec. (12081.49 ticks)

--- MIP status (101): integer optimal solution.
--- Cplex Time: 8.30sec (det. 12081.49 ticks)

--- Fixing integer variables and solving final LP...

Version identifier: 20.1.0.0 | 2020-11-10 | 9bedb6d68
CPXPARAM_Advance                                 2
CPXPARAM_Threads                                 1
CPXPARAM_MIP_Display                             4
CPXPARAM_TimeLimit                               3600
CPXPARAM_MIP_Tolerances_AbsMIPGap                0
CPXPARAM_MIP_Tolerances_MIPGap                   0
Tried aggregator 1 time.
LP Presolve eliminated 400 rows and 761 columns.
All rows and columns eliminated.
Presolve time = 0.00 sec. (0.26 ticks)

--- Fixed MIP status (1): optimal.
--- Cplex Time: 0.00sec (det. 0.44 ticks)


Proven optimal solution
MIP Solution:         1941.000000    (156092 iterations, 4528 nodes)
Final Solve:          1941.000000    (0 iterations)

Best possible:        1941.000000
Absolute gap:            0.000000
Relative gap:            0.000000

--- Reading solution for model master
*** Status: Normal completion
--- Job bchfcnet.gms Stop 02/08/22 17:24:48 elapsed 0:00:08.460
